50
    91     2    92    98    49    88    82    72    19     8    52    83    36    46    45    84    73    51    91    45    44    38    11    52     4    88    20     5    48    47    19    21    12    26     3    32    73     4    56    86    48    23    54    46    95    92    61    91    13    86
     2     9     8     3     5     4     2     8     3     9    10     3     7     3     2     7     5     3     5     5    10     8     4     5     7     4     1     1     2     9     5     1     4     9     2     7     5    10     6     7     8     9     7     3     8     1     4     2     3     2
  1270   767   983  1570  1351  1070  1395  1718  1078  2142  1207  2191  1608  2071  1803  2216  1651   794  1670  1536  2016  1742  1327  1675  1911  2218  1494  1947  1989  1049  2017  2225  2142   974  1535  1959  1550  1286   909  1440   983  1713  1387   815  1338  1073  2027  1355  1440  1154
